
Gurobi 8.1.1 (win64) logging started 11/23/19 13:03:13

Changed value of parameter LogFile to logs/full/max/full-07-30-0.log
   Prev: gurobi.log  Default: 
Changed value of parameter LogToConsole to 0
   Prev: 1  Min: 0  Max: 1  Default: 1
Changed value of parameter TimeLimit to 3600.0
   Prev: 1e+100  Min: 0.0  Max: 1e+100  Default: 1e+100
Optimize a model with 4641 rows, 2220 columns and 17850 nonzeros
Variable types: 0 continuous, 2220 integer (2205 binary)
Coefficient statistics:
  Matrix range     [1e+00, 6e+02]
  Objective range  [1e+00, 1e+00]
  Bounds range     [1e+00, 1e+00]
  RHS range        [1e+00, 6e+02]
Found heuristic solution: objective 8.0000000
Presolve time: 0.03s
Presolved: 4641 rows, 2220 columns, 17850 nonzeros
Variable types: 0 continuous, 2220 integer (2205 binary)

Root relaxation: objective 2.100000e+01, 258 iterations, 0.01 seconds

    Nodes    |    Current Node    |     Objective Bounds      |     Work
 Expl Unexpl |  Obj  Depth IntInf | Incumbent    BestBd   Gap | It/Node Time

     0     0   21.00000    0   19    8.00000   21.00000   162%     -    0s
H    0     0                      18.0000000   21.00000  16.7%     -    0s
     0     0   21.00000    0   53   18.00000   21.00000  16.7%     -    0s
     0     0   21.00000    0   11   18.00000   21.00000  16.7%     -    0s
H    0     0                      19.0000000   21.00000  10.5%     -    0s
H    0     0                      21.0000000   21.00000  0.00%     -    0s
     0     0   21.00000    0   16   21.00000   21.00000  0.00%     -    0s

Cutting planes:
  Gomory: 9
  MIR: 14
  StrongCG: 5

Explored 1 nodes (1763 simplex iterations) in 0.67 seconds
Thread count was 4 (of 4 available processors)

Solution count 4: 21 19 18 8 

Optimal solution found (tolerance 1.00e-04)
Best objective 2.100000000000e+01, best bound 2.100000000000e+01, gap 0.0000%

Gurobi 8.1.1 (win64) logging started 11/23/19 13:03:14

Changed value of parameter LogFile to logs/full/max/full-07-30-0.log
   Prev: gurobi.log  Default: 
Changed value of parameter LogToConsole to 0
   Prev: 1  Min: 0  Max: 1  Default: 1
Changed value of parameter TimeLimit to 3600.0
   Prev: 1e+100  Min: 0.0  Max: 1e+100  Default: 1e+100
Optimize a model with 2441 rows, 1166 columns and 9350 nonzeros
Variable types: 0 continuous, 1166 integer (1155 binary)
Coefficient statistics:
  Matrix range     [1e+00, 6e+02]
  Objective range  [1e+00, 1e+00]
  Bounds range     [1e+00, 1e+00]
  RHS range        [1e+00, 6e+02]
Found heuristic solution: objective 5.0000000
Presolve time: 0.03s
Presolved: 2441 rows, 1166 columns, 9350 nonzeros
Variable types: 0 continuous, 1166 integer (1155 binary)

Root relaxation: objective 2.100000e+01, 251 iterations, 0.01 seconds

    Nodes    |    Current Node    |     Objective Bounds      |     Work
 Expl Unexpl |  Obj  Depth IntInf | Incumbent    BestBd   Gap | It/Node Time

     0     0   21.00000    0    7    5.00000   21.00000   320%     -    0s
H    0     0                      18.0000000   21.00000  16.7%     -    0s
H    0     0                      19.0000000   21.00000  10.5%     -    0s
     0     0   21.00000    0   48   19.00000   21.00000  10.5%     -    0s
     0     0   21.00000    0    2   19.00000   21.00000  10.5%     -    0s
H    0     0                      20.0000000   21.00000  5.00%     -    0s
     0     0   21.00000    0    6   20.00000   21.00000  5.00%     -    0s
H    0     0                      21.0000000   21.00000  0.00%     -    0s
     0     0   21.00000    0   12   21.00000   21.00000  0.00%     -    0s

Cutting planes:
  MIR: 10
  StrongCG: 4

Explored 1 nodes (1387 simplex iterations) in 0.39 seconds
Thread count was 4 (of 4 available processors)

Solution count 5: 21 20 19 ... 5

Optimal solution found (tolerance 1.00e-04)
Best objective 2.100000000000e+01, best bound 2.100000000000e+01, gap 0.0000%

Gurobi 8.1.1 (win64) logging started 11/23/19 13:03:14

Changed value of parameter LogFile to logs/full/max/full-07-30-0.log
   Prev: gurobi.log  Default: 
Changed value of parameter LogToConsole to 0
   Prev: 1  Min: 0  Max: 1  Default: 1
Changed value of parameter TimeLimit to 3600.0
   Prev: 1e+100  Min: 0.0  Max: 1e+100  Default: 1e+100
Optimize a model with 1605 rows, 765 columns and 6120 nonzeros
Variable types: 0 continuous, 765 integer (756 binary)
Coefficient statistics:
  Matrix range     [1e+00, 6e+02]
  Objective range  [1e+00, 1e+00]
  Bounds range     [1e+00, 1e+00]
  RHS range        [1e+00, 6e+02]
Found heuristic solution: objective 4.0000000
Presolve time: 0.01s
Presolved: 1605 rows, 765 columns, 6120 nonzeros
Variable types: 0 continuous, 765 integer (756 binary)

Root relaxation: objective 2.100000e+01, 198 iterations, 0.01 seconds

    Nodes    |    Current Node    |     Objective Bounds      |     Work
 Expl Unexpl |  Obj  Depth IntInf | Incumbent    BestBd   Gap | It/Node Time

     0     0   21.00000    0   10    4.00000   21.00000   425%     -    0s
H    0     0                      17.0000000   21.00000  23.5%     -    0s
     0     0   21.00000    0   22   17.00000   21.00000  23.5%     -    0s
     0     0   21.00000    0   10   17.00000   21.00000  23.5%     -    0s
     0     0   21.00000    0   10   17.00000   21.00000  23.5%     -    0s
     0     0   21.00000    0   10   17.00000   21.00000  23.5%     -    0s
     0     0   21.00000    0   16   17.00000   21.00000  23.5%     -    0s
     0     0   21.00000    0   15   17.00000   21.00000  23.5%     -    0s
     0     0   21.00000    0   15   17.00000   21.00000  23.5%     -    0s
H    0     2                      18.0000000   21.00000  16.7%     -    0s
     0     2   21.00000    0    6   18.00000   21.00000  16.7%     -    0s
H 2900   504                      19.0000000   21.00000  10.5%   8.2    2s
H 2908   484                      20.0000000   21.00000  5.00%   8.2    2s
  2985   514   21.00000   31   20   20.00000   21.00000  5.00%   3.5    5s
 10287  3356   21.00000   99   21   20.00000   21.00000  5.00%  16.0   10s
 18953  5382 infeasible   67        20.00000   21.00000  5.00%  15.4   15s
 20615  6210   21.00000  103   18   20.00000   21.00000  5.00%  15.4   22s
 24807  7690   21.00000  121   22   20.00000   21.00000  5.00%  15.7   25s
 31473  8172   21.00000   93   18   20.00000   21.00000  5.00%  15.9   30s
 39116  9371   21.00000   97   33   20.00000   21.00000  5.00%  16.3   35s
 46517 13822   21.00000  223   26   20.00000   21.00000  5.00%  16.5   40s
 54641 14776 infeasible  152        20.00000   21.00000  5.00%  15.9   45s
 63792 14970 infeasible  107        20.00000   21.00000  5.00%  15.3   50s
 71671 15698 infeasible  176        20.00000   21.00000  5.00%  15.0   55s
 79800 16066   21.00000  118   21   20.00000   21.00000  5.00%  14.8   60s
 88092 16181 infeasible  135        20.00000   21.00000  5.00%  14.5   65s
 96723 16399   21.00000  138   18   20.00000   21.00000  5.00%  14.4   70s
 105224 17216 infeasible  147        20.00000   21.00000  5.00%  14.3   75s
 113382 21422   21.00000  203   24   20.00000   21.00000  5.00%  14.3   80s
 122292 25883 infeasible  125        20.00000   21.00000  5.00%  14.3   85s
 130603 26513 infeasible  142        20.00000   21.00000  5.00%  14.3   90s
 138143 26503 infeasible  134        20.00000   21.00000  5.00%  14.3   95s
 147041 26786 infeasible  115        20.00000   21.00000  5.00%  14.2  100s
 155431 27586   21.00000  163   23   20.00000   21.00000  5.00%  14.1  105s
 163462 27636 infeasible  113        20.00000   21.00000  5.00%  14.0  110s
 171598 27993 infeasible   87        20.00000   21.00000  5.00%  14.0  115s
 180240 28881 infeasible  113        20.00000   21.00000  5.00%  13.9  120s
 188567 29448 infeasible  117        20.00000   21.00000  5.00%  13.9  125s
 196442 29668 infeasible  109        20.00000   21.00000  5.00%  13.9  130s
 204155 30102 infeasible  106        20.00000   21.00000  5.00%  13.9  135s
 211955 30567   21.00000  163   25   20.00000   21.00000  5.00%  13.9  140s
 220440 30687 infeasible  106        20.00000   21.00000  5.00%  13.8  145s
 228013 31162 infeasible  126        20.00000   21.00000  5.00%  13.8  150s
 236242 31738 infeasible  111        20.00000   21.00000  5.00%  13.8  155s
 244218 32588 infeasible  138        20.00000   21.00000  5.00%  13.8  160s
 252733 32522 infeasible  120        20.00000   21.00000  5.00%  13.8  165s
 260571 35286   21.00000  103   26   20.00000   21.00000  5.00%  13.8  170s
H262378    13                      21.0000000   21.00000  0.00%  13.8  171s

Cutting planes:
  Gomory: 2
  MIR: 2
  Flow cover: 7
  Zero half: 4

Explored 262541 nodes (3651783 simplex iterations) in 171.06 seconds
Thread count was 4 (of 4 available processors)

Solution count 6: 21 20 19 ... 4

Optimal solution found (tolerance 1.00e-04)
Best objective 2.100000000000e+01, best bound 2.100000000000e+01, gap 0.0000%

Gurobi 8.1.1 (win64) logging started 11/23/19 13:06:05

Changed value of parameter LogFile to logs/full/max/full-07-30-0.log
   Prev: gurobi.log  Default: 
Changed value of parameter LogToConsole to 0
   Prev: 1  Min: 0  Max: 1  Default: 1
Changed value of parameter TimeLimit to 3600.0
   Prev: 1e+100  Min: 0.0  Max: 1e+100  Default: 1e+100
Optimize a model with 1253 rows, 596 columns and 4760 nonzeros
Variable types: 0 continuous, 596 integer (588 binary)
Coefficient statistics:
  Matrix range     [1e+00, 6e+02]
  Objective range  [1e+00, 1e+00]
  Bounds range     [1e+00, 1e+00]
  RHS range        [1e+00, 6e+02]
Found heuristic solution: objective 4.0000000
Presolve time: 0.01s
Presolved: 1253 rows, 596 columns, 4760 nonzeros
Variable types: 0 continuous, 596 integer (588 binary)

Root relaxation: objective 2.100000e+01, 184 iterations, 0.01 seconds

    Nodes    |    Current Node    |     Objective Bounds      |     Work
 Expl Unexpl |  Obj  Depth IntInf | Incumbent    BestBd   Gap | It/Node Time

     0     0   21.00000    0   21    4.00000   21.00000   425%     -    0s
H    0     0                      12.0000000   21.00000  75.0%     -    0s
H    0     0                      16.0000000   21.00000  31.2%     -    0s
     0     0   21.00000    0   42   16.00000   21.00000  31.2%     -    0s
     0     0   21.00000    0   42   16.00000   21.00000  31.2%     -    0s
     0     0   21.00000    0   10   16.00000   21.00000  31.2%     -    0s
H    0     0                      17.0000000   21.00000  23.5%     -    0s
     0     0   21.00000    0   10   17.00000   21.00000  23.5%     -    0s
     0     0   21.00000    0    9   17.00000   21.00000  23.5%     -    0s
     0     0   21.00000    0   12   17.00000   21.00000  23.5%     -    0s
     0     0   21.00000    0   14   17.00000   21.00000  23.5%     -    0s
     0     0   21.00000    0   14   17.00000   21.00000  23.5%     -    0s
     0     0   21.00000    0   18   17.00000   21.00000  23.5%     -    0s
     0     0   21.00000    0   30   17.00000   21.00000  23.5%     -    0s
     0     0   21.00000    0   20   17.00000   21.00000  23.5%     -    0s
     0     2   21.00000    0   16   17.00000   21.00000  23.5%     -    0s
H 2289   436                      18.0000000   21.00000  16.7%  15.4    3s
  2343   451   21.00000   19    6   18.00000   21.00000  16.7%  19.6    5s
 10697  4053   21.00000  105   35   18.00000   21.00000  16.7%  12.5   10s
 20850  9783   19.60735  190   28   18.00000   21.00000  16.7%  11.4   18s
 25207 12224   19.00000  127   29   18.00000   21.00000  16.7%  11.6   20s
 38494 17336   19.79255  150   38   18.00000   21.00000  16.7%  12.0   25s
 53542 25044   21.00000   90   29   18.00000   21.00000  16.7%  11.6   30s
 69664 31595 infeasible   41        18.00000   21.00000  16.7%  11.5   35s
 83360 38204 infeasible   39        18.00000   21.00000  16.7%  11.5   40s
 100718 44878   21.00000   50   31   18.00000   21.00000  16.7%  11.2   45s
 115838 50928   20.86486  104   29   18.00000   21.00000  16.7%  11.1   50s
 125967 55705   20.87184   99   25   18.00000   21.00000  16.7%  11.3   55s
 146406 64951   21.00000   80   34   18.00000   21.00000  16.7%  11.1   60s
 159653 72143 infeasible  165        18.00000   21.00000  16.7%  11.2   65s
 176240 79428   19.00000   90   27   18.00000   21.00000  16.7%  11.1   70s
 190891 85278 infeasible  113        18.00000   21.00000  16.7%  11.1   75s
 206199 90849 infeasible   77        18.00000   21.00000  16.7%  11.1   80s
 220196 96769 infeasible   75        18.00000   21.00000  16.7%  11.1   85s
 235097 102431 infeasible   72        18.00000   21.00000  16.7%  11.2   90s
 249884 109046   19.93321   66   23   18.00000   21.00000  16.7%  11.2   95s
 263036 114393   19.28571   63   31   18.00000   21.00000  16.7%  11.3  100s
 278384 120343 infeasible   78        18.00000   21.00000  16.7%  11.2  105s
 294302 126756   20.42857   71   27   18.00000   21.00000  16.7%  11.2  110s
 309335 133724   21.00000   50   27   18.00000   21.00000  16.7%  11.1  115s
 322939 141084   21.00000   90   20   18.00000   21.00000  16.7%  11.1  120s
 343702 150604 infeasible   92        18.00000   21.00000  16.7%  10.9  125s
 359947 157008 infeasible   96        18.00000   21.00000  16.7%  10.9  130s
 377226 163785   21.00000  127   26   18.00000   21.00000  16.7%  10.8  135s
 394737 171455   21.00000   90   24   18.00000   21.00000  16.7%  10.7  140s
 411298 177949   19.81673  171   33   18.00000   21.00000  16.7%  10.7  145s
 427867 184888   21.00000  124   27   18.00000   21.00000  16.7%  10.7  150s
 444261 191870 infeasible  134        18.00000   21.00000  16.7%  10.6  155s
 459624 197872   20.96751  101   30   18.00000   21.00000  16.7%  10.6  160s
 474754 203045   21.00000  118   31   18.00000   21.00000  16.7%  10.6  165s
 491997 210444   20.98556  101   23   18.00000   21.00000  16.7%  10.5  170s
 507584 217556 infeasible   77        18.00000   21.00000  16.7%  10.4  175s
 519744 223349   21.00000  100   24   18.00000   21.00000  16.7%  10.4  180s
 531134 227475   21.00000  103   28   18.00000   21.00000  16.7%  10.4  185s
 543708 232635   21.00000  121   28   18.00000   21.00000  16.7%  10.4  190s
 556988 237968   21.00000   90   35   18.00000   21.00000  16.7%  10.4  195s
 567962 241898   21.00000   80   18   18.00000   21.00000  16.7%  10.5  200s
 579580 246393   21.00000   80   30   18.00000   21.00000  16.7%  10.5  205s
 591663 250032   20.00000   94   26   18.00000   21.00000  16.7%  10.5  210s
 602465 253632   20.02703  103   28   18.00000   21.00000  16.7%  10.6  215s
 614163 257544   21.00000   70   29   18.00000   21.00000  16.7%  10.6  220s
 626014 261517   19.44048  124   34   18.00000   21.00000  16.7%  10.6  225s
 636349 266602   21.00000   69   25   18.00000   21.00000  16.7%  10.7  230s
 645877 271235 infeasible   59        18.00000   21.00000  16.7%  10.7  235s
 656953 275654 infeasible   52        18.00000   21.00000  16.7%  10.7  240s
 669023 279789   20.00000   74   36   18.00000   21.00000  16.7%  10.7  245s
 681058 283817   20.97473   60   24   18.00000   21.00000  16.7%  10.7  250s
 694489 288180     cutoff   67        18.00000   21.00000  16.7%  10.8  255s
 704804 292002   19.99420   67   32   18.00000   21.00000  16.7%  10.8  260s
 716166 296132 infeasible   52        18.00000   21.00000  16.7%  10.8  265s
 727314 299518 infeasible   62        18.00000   21.00000  16.7%  10.8  270s
 739912 303949 infeasible   30        18.00000   21.00000  16.7%  10.8  275s
 752273 308852   21.00000   80   16   18.00000   21.00000  16.7%  10.8  280s
 763433 313005   21.00000  121   28   18.00000   21.00000  16.7%  10.9  285s
 774808 316984   20.00000  127   26   18.00000   21.00000  16.7%  10.8  290s
 786626 321628   21.00000   72   36   18.00000   21.00000  16.7%  10.8  295s
 798713 325949   19.66667   70   35   18.00000   21.00000  16.7%  10.8  300s
 811542 330264     cutoff   60        18.00000   21.00000  16.7%  10.9  305s
 823280 334810 infeasible   56        18.00000   21.00000  16.7%  10.9  310s
 835507 338960   20.97834  141   27   18.00000   21.00000  16.7%  10.9  315s
 846384 342643   21.00000   99   32   18.00000   21.00000  16.7%  10.9  320s
 857129 346626   20.94595   44   44   18.00000   21.00000  16.7%  10.9  325s
 868652 351212   19.00000   61   16   18.00000   21.00000  16.7%  10.9  330s
 881813 356634   21.00000   40   29   18.00000   21.00000  16.7%  10.9  335s
 894537 360956   21.00000   50   26   18.00000   21.00000  16.7%  10.9  340s
 906116 365133   21.00000   30   21   18.00000   21.00000  16.7%  11.0  345s
 917214 369591   20.83333   50   33   18.00000   21.00000  16.7%  11.0  350s
 929299 373864   20.59091   57   27   18.00000   21.00000  16.7%  11.0  355s
 939871 377506   21.00000   71   21   18.00000   21.00000  16.7%  11.0  360s
 951583 381443   21.00000   62   30   18.00000   21.00000  16.7%  11.0  365s
 962754 385344   21.00000  107   27   18.00000   21.00000  16.7%  11.0  370s
 973814 389498 infeasible   50        18.00000   21.00000  16.7%  11.1  375s
 985240 393536 infeasible   50        18.00000   21.00000  16.7%  11.1  380s
 997873 399149   21.00000   71   30   18.00000   21.00000  16.7%  11.1  385s
 1010432 403789   21.00000   81   34   18.00000   21.00000  16.7%  11.1  390s
 1023030 408678   21.00000   80   26   18.00000   21.00000  16.7%  11.0  395s
 1035470 413084     cutoff   85        18.00000   21.00000  16.7%  11.0  400s
 1046743 417212   20.35714   70   41   18.00000   21.00000  16.7%  11.0  405s
 1059816 421633 infeasible   59        18.00000   21.00000  16.7%  11.0  410s
 1071341 425497   20.98556   80   34   18.00000   21.00000  16.7%  11.1  415s
 1081416 429193 infeasible   68        18.00000   21.00000  16.7%  11.1  420s
 1093336 433939   20.16783   44   30   18.00000   21.00000  16.7%  11.1  425s
 1105656 438673   21.00000   80   35   18.00000   21.00000  16.7%  11.1  430s
 1117491 443790   20.99639   50   24   18.00000   21.00000  16.7%  11.1  435s
 1128658 448137   20.00000   67   34   18.00000   21.00000  16.7%  11.1  440s
 1140816 452818   21.00000  110   27   18.00000   21.00000  16.7%  11.1  445s
 1153402 457018 infeasible   81        18.00000   21.00000  16.7%  11.1  450s
 1164693 460534   21.00000   80   29   18.00000   21.00000  16.7%  11.1  455s
 1177229 465296   20.53571   80   29   18.00000   21.00000  16.7%  11.1  460s
 1189136 469323   21.00000   80   30   18.00000   21.00000  16.7%  11.1  465s
 1201123 473589   21.00000  100   26   18.00000   21.00000  16.7%  11.1  470s
 1212193 477385   20.90433   89   28   18.00000   21.00000  16.7%  11.1  475s
 1224236 481769   21.00000   60   25   18.00000   21.00000  16.7%  11.1  480s
 1235902 486146   20.42857   84   36   18.00000   21.00000  16.7%  11.0  485s
 1248189 490559   20.96029   66   33   18.00000   21.00000  16.7%  11.0  490s
 1258638 494550   21.00000   90   31   18.00000   21.00000  16.7%  11.1  495s
 1269855 499271     cutoff  131        18.00000   21.00000  16.7%  11.1  500s
 1280387 503402   20.96656   95   37   18.00000   21.00000  16.7%  11.1  505s
 1291408 507897   19.96029  139   36   18.00000   21.00000  16.7%  11.1  510s
 1301380 511194   20.07353   60   36   18.00000   21.00000  16.7%  11.1  515s
 1311780 514896   19.22188  155   32   18.00000   21.00000  16.7%  11.2  520s
 1323177 518782   19.16216   71   24   18.00000   21.00000  16.7%  11.2  525s
 1334569 523120   19.94893  199   26   18.00000   21.00000  16.7%  11.2  530s
 1342947 526781   21.00000   60   26   18.00000   21.00000  16.7%  11.2  535s
 1351424 531487   19.00000  136   26   18.00000   21.00000  16.7%  11.2  540s
 1361888 535536 infeasible   81        18.00000   21.00000  16.7%  11.2  545s
 1373372 539601     cutoff  115        18.00000   21.00000  16.7%  11.3  550s
 1384438 543355   19.00000  100   21   18.00000   21.00000  16.7%  11.3  555s
H1393185     7                      21.0000000   21.00000  0.00%  11.3  559s

Cutting planes:
  Gomory: 4
  MIR: 4
  StrongCG: 1
  Flow cover: 5
  Inf proof: 2
  Zero half: 3

Explored 1393485 nodes (15711829 simplex iterations) in 559.77 seconds
Thread count was 4 (of 4 available processors)

Solution count 6: 21 18 17 ... 4

Optimal solution found (tolerance 1.00e-04)
Best objective 2.100000000000e+01, best bound 2.100000000000e+01, gap 0.0000%
